16	8	6	9	12	7	14	8	19	13
6	12	17	17	11	19	11	8	1	10
3	6	8	7	1	18	20	20	13	8
4	14	11	6	20	9	6	14	5	17
13	6	9	1	1	8	6	5	9	15
18	19	15	20	1	16	3	2	14	20
6	20	20	15	10	13	13	6	8	17
20	3	12	20	16	20	15	20	11	13
7	12	3	15	12	9	1	2	3	10
15	19	13	14	16	19	9	17	18	5
9	6	6	10	19	13	8	11	1	1
3	18	6	17	6	7	11	15	16	18
19	18	10	10	2	7	7	18	11	7
11	2	4	4	18	8	19	6	13	5
17	12	3	19	3	18	19	15	7	4
9	6	9	1	17	12	5	16	5	1
18	20	7	19	4	10	16	14	19	14
18	4	16	1	5	6	14	17	16	5
20	2	10	1	17	11	11	9	19	8
